77      4       
10      10      10      10      
0       0       0       0       0       5       2       3       6       7       11      
6       0       0       0       1       4       4       8       10      12      
10      0       0       0       9       7       10      12      13      14      15      21      22      
4       7       0       0       5       2       5       20      
6       0       0       0       10      4       9       14      18      21      
4       0       0       0       9       6       13      14      18      20      22      27      
9       0       0       0       9       5       12      16      22      31      34      
10      0       0       0       10      5       15      17      25      26      30      
1       0       0       0       10      4       13      17      22      27      
2       0       8       6       5       4       17      18      27      30      
8       0       0       0       9       7       21      22      24      25      27      30      34      
3       0       0       0       10      4       18      19      26      30      
6       0       0       0       10      4       19      23      30      34      
2       0       0       0       10      4       19      25      30      31      
7       3       6       3       4       4       19      27      31      34      
2       7       2       0       5       5       23      24      27      29      30      
7       0       0       0       10      3       19      23      34      
9       0       8       0       4       4       23      24      25      33      
2       0       0       0       10      4       24      29      33      38      
9       0       0       0       10      3       24      29      38      
4       0       0       0       10      2       23      29      
2       0       4       0       6       4       28      33      38      41      
8       0       4       0       6       5       32      36      37      38      41      
6       0       0       0       10      3       28      32      41      
10      0       0       7       6       3       29      32      41      
2       7       8       4       4       3       28      32      41      
10      0       0       0       10      2       28      41      
1       0       8       0       5       5       35      36      37      39      40      
4       4       6       4       4       5       35      36      37      39      40      
7       0       0       6       6       4       33      36      38      43      
6       0       0       10      10      5       36      37      39      43      46      
6       0       0       10      10      2       35      39      
3       0       0       10      10      5       39      40      42      45      46      
3       0       0       10      10      3       37      46      51      
3       8       9       4       0       9       42      43      45      46      47      48      49      51      57      
9       0       0       10      0       7       42      44      47      48      51      53      54      
2       0       0       10      0       6       42      44      45      48      53      54      
3       3       2       4       5       4       40      42      44      53      
3       0       10      10      0       5       44      51      53      54      56      
4       0       10      10      0       7       47      48      49      50      55      57      58      
10      0       8       6       0       7       46      47      48      50      51      54      55      
8       0       6       0       0       8       50      52      55      56      58      60      62      67      
1       0       6       5       6       7       50      52      53      55      62      65      68      
8       0       6       6       0       6       49      50      55      57      60      67      
10      0       4       4       0       7       50      52      55      60      65      67      68      
6       0       10      10      0       9       56      59      60      61      62      63      65      66      67      
9       0       4       5       0       6       52      56      60      63      65      67      
5       0       6       0       6       3       52      62      63      
6       0       6       0       8       2       52      65      
2       3       4       2       4       6       61      63      64      66      70      72      
3       0       4       6       4       6       62      66      67      68      72      73      
3       0       6       0       0       5       59      64      66      72      76      
8       0       7       0       7       5       60      66      67      71      76      
7       6       6       0       0       3       59      69      72      
5       0       10      0       0       5       69      70      71      72      73      
10      0       8       0       0       5       64      69      70      72      76      
3       4       2       5       4       4       64      68      69      73      
5       0       10      0       0       3       65      68      72      
10      0       6       8       0       3       70      71      73      
5       0       6       7       6       3       69      70      75      
3       4       4       2       5       3       69      71      76      
5       0       10      0       0       3       74      75      76      
3       0       10      0       0       2       69      71      
2       6       3       5       3       2       74      75      
10      0       4       3       4       2       74      75      
10      0       9       0       0       1       69      
3       6       5       0       5       1       69      
9       0       10      0       0       1       70      
9       0       10      0       0       1       74      
5       6       5       0       5       1       74      
5       4       1       5       2       1       74      
5       8       6       0       6       1       75      
3       0       5       5       5       1       75      
8       0       0       0       10      1       77      
1       0       9       0       8       1       77      
6       0       10      0       10      1       77      
0       0       0       0       0       0       
